# Cost: 874

# Tail Head Net
 35  34 1
 36  35 1
 86  36 1
 87  86 1
 88  87 1
 89  88 1
 90  89 1
 42  43 1
 91  90 1
 91  92 1
 92  42 1
141  91 1
191 141 1
241 191 1
291 241 1
341 291 1
391 341 1
441 391 1
491 441 1
541 491 1
591 541 1
641 591 1
691 641 1
741 691 1
791 741 1
841 791 1
891 841 1
941 891 1
991 941 1
1041 991 1
1091 1041 1
1141 1091 1
1191 1141 1
1241 1191 1
1291 1241 1
1341 1291 1
1391 1341 1
1441 1391 1
1491 1441 1
1541 1491 1
1540 1541 1
1590 1540 1
1640 1590 1
1690 1640 1
1740 1690 1
1790 1740 1
1840 1790 1
1890 1840 1
1940 1890 1
1990 1940 1
2040 1990 1
2090 2040 1
2140 2090 1
2190 2140 1
2240 2190 1
2290 2240 1
2340 2290 1
2390 2340 1
2440 2390 1
2456 2457 1
2457 2458 1
2458 2459 1
2459 2460 1
2460 2461 1
2461 2462 1
2462 2463 1
2463 2464 1
2464 2465 1
2465 2466 1
2466 2467 1
2467 2468 1
2468 2469 1
2469 2470 1
2470 2471 1
2471 2472 1
2472 2473 1
2473 2474 1
2474 2475 1
2475 2476 1
2476 2477 1
2477 2478 1
2478 2479 1
2479 2480 1
2480 2481 1
2481 2482 1
2482 2483 1
2483 2484 1
2484 2485 1
2485 2486 1
2486 2487 1
2487 2488 1
2488 2489 1
2489 2490 1
2490 2440 1
 96  46 2
146  96 2
196 146 2
246 196 2
247 246 2
297 247 2
347 297 2
397 347 2
447 397 2
497 447 2
497 498 2
498 499 2
499 500 2
547 497 2
597 547 2
647 597 2
697 647 2
747 697 2
797 747 2
847 797 2
897 847 2
947 897 2
997 947 2
1047 997 2
1097 1047 2
1147 1097 2
1197 1147 2
1247 1197 2
1297 1247 2
1347 1297 2
1397 1347 2
1447 1397 2
1497 1447 2
1547 1497 2
1597 1547 2
1647 1597 2
1697 1647 2
1747 1697 2
1797 1747 2
1847 1797 2
1897 1847 2
1947 1897 2
1997 1947 2
2047 1997 2
2097 2047 2
2147 2097 2
2197 2147 2
2247 2197 2
2297 2247 2
2347 2297 2
2397 2347 2
2447 2397 2
2494 2493 2
2495 2494 2
2496 2495 2
2497 2447 2
2497 2496 2
2950 450 3
3000 2950 3
3050 3000 3
3100 3050 3
3150 3100 3
3200 3150 3
3250 3200 3
3300 3250 3
3350 3300 3
3400 3350 3
3450 3400 3
3500 3450 3
3550 3500 3
3600 3550 3
3650 3600 3
3700 3650 3
3750 3700 3
3800 3750 3
3850 3800 3
3900 3850 3
3950 3900 3
4000 3950 3
4050 4000 3
4091 4092 3
4092 4093 3
4093 4094 3
4094 4095 3
4095 4096 3
4096 4097 3
4097 4098 3
4098 4099 3
4099 4100 3
4100 1600 3
4100 4050 3
4101 4102 3
4102 4103 3
4103 4104 3
4104 4105 3
4105 4106 3
4106 4107 3
4107 4108 3
4108 4109 3
4109 4110 3
4110 4111 3
4111 4112 3
4112 4113 3
4113 4114 3
4114 4115 3
4115 4116 3
4116 4117 3
4117 4118 3
4118 4119 3
4119 4120 3
4120 4121 3
4121 4122 3
4122 4123 3
4123 4124 3
4124 4125 3
4125 4126 3
4126 4127 3
4127 4128 3
4128 4129 3
4129 4130 3
4130 4131 3
4131 4132 3
4132 4133 3
4133 4134 3
4134 4135 3
4135 4136 3
4136 4137 3
4137 4138 3
4138 4139 3
4139 4140 3
4140 4141 3
4141 4091 3
4151 4101 3
4201 4151 3
4251 4201 3
4301 4251 3
1901 4401 3
4351 4301 3
4401 4351 3
 99 100 4
149  99 4
199 149 4
249 199 4
299 249 4
349 299 4
399 349 4
449 399 4
2949 449 4
501 551 4
501 3001 4
2999 2949 4
3001 3002 4
3002 3003 4
3003 3004 4
3004 3005 4
3005 3006 4
3006 3007 4
3007 3008 4
3008 3009 4
3009 3010 4
3010 3011 4
3011 3012 4
3012 3013 4
3013 3014 4
3014 3015 4
3015 3016 4
3016 3017 4
3017 3018 4
3018 3019 4
3019 3020 4
3020 3021 4
3021 3022 4
3022 3023 4
3023 3024 4
3024 3025 4
3025 3026 4
3026 3027 4
3027 3028 4
3028 3029 4
3029 3030 4
3030 3031 4
3031 3032 4
3032 3033 4
3033 3034 4
3034 3035 4
3035 3036 4
3036 3037 4
3037 3038 4
3038 3039 4
3039 3040 4
3040 3041 4
3041 3042 4
3042 3043 4
3043 3044 4
3044 3045 4
3045 3046 4
3046 3047 4
3047 3048 4
3048 3049 4
3049 2999 4
2541  41 5
2591 2541 5
2641 2591 5
2691 2641 5
2741 2691 5
2791 2741 5
2841 2791 5
2891 2841 5
490 2990 5
2941 2891 5
540 490 5
2990 2991 5
2991 2941 5
590 540 5
640 590 5
690 640 5
740 690 5
770 771 5
771 772 5
772 773 5
773 774 5
774 775 5
775 776 5
776 777 5
777 778 5
778 779 5
779 780 5
780 781 5
781 782 5
782 783 5
783 784 5
784 785 5
785 786 5
786 787 5
787 788 5
788 789 5
789 790 5
790 740 5
820 770 5
870 820 5
920 870 5
970 920 5
1020 970 5
1070 1020 5
1101 1102 5
1102 1103 5
1103 1104 5
1104 1105 5
1105 1106 5
1106 1107 5
1107 1108 5
1108 1109 5
1109 1110 5
1110 1111 5
1111 1112 5
1112 1113 5
1113 1114 5
1114 1115 5
1115 1116 5
1116 1117 5
1117 1118 5
1118 1119 5
1119 1120 5
1120 1070 5
1151 1101 5
 23  73 6
 72 122 6
 24  23 6
 24 2524 6
 73  72 6
2524 2525 6
2525 2526 6
2526 2527 6
2527 2528 6
2528 2529 6
2529 2530 6
2530 2531 6
2531 2532 6
2532 2533 6
2533 2534 6
2534 2535 6
2535 2536 6
 37  38 6
2536 2537 6
 38  39 6
2537  37 6
122 172 6
172 222 6
220 270 6
221 220 6
222 221 6
269 319 6
270 269 6
318 368 6
319 318 6
368 418 6
418 468 6
468 518 6
502 552 6
503 502 6
504 503 6
505 504 6
506 505 6
507 506 6
508 507 6
509 508 6
510 509 6
511 510 6
512 511 6
513 512 6
514 513 6
515 514 6
516 515 6
517 516 6
518 517 6
552 602 6
601 651 6
602 601 6
651 701 6
701 751 6
751 801 6
801 851 6
851 901 6
901 951 6
951 1001 6
1001 1051 6
1051 3551 6
3551 3601 6
3601 3651 6
3651 3701 6
3701 3751 6
3751 3801 6
1351 1401 6
3801 3851 6
3851 1351 6
 95  45 7
145  95 7
195 145 7
245 195 7
295 245 7
342 343 7
343 344 7
344 345 7
345 295 7
345 2845 7
392 342 7
2845 2846 7
2846 2847 7
2847 2848 7
2848 2849 7
2849 2850 7
2850 350 7
442 392 7
492 442 7
542 492 7
592 542 7
3081 3082 7
3082 3083 7
3083 3084 7
3084 3085 7
3085 3086 7
3086 3087 7
3087 3088 7
3088 3089 7
3089 3090 7
3090 3091 7
3091 3092 7
3092 592 7
3124 3125 7
3125 3126 7
3126 3127 7
3127 3128 7
3128 3129 7
3129 3130 7
3130 3131 7
3131 3081 7
3171 3172 7
3172 3173 7
3173 3174 7
3174 3124 7
3203 3204 7
3204 3205 7
3205 3206 7
3206 3207 7
3207 3208 7
3208 3209 7
3209 3210 7
3210 3211 7
3211 3212 7
3212 3213 7
3213 3214 7
3214 3215 7
3215 3216 7
3216 3217 7
3217 3218 7
3218 3219 7
3219 3220 7
3220 3221 7
3221 3171 7
3253 3203 7
3303 3253 7
3353 3303 7
3403 3353 7
3453 3403 7
3503 3453 7
3553 3503 7
3603 3553 7
3653 3603 7
3703 3653 7
3753 3703 7
3803 3753 7
3852 3853 7
3853 3803 7
3901 3902 7
3902 3852 7
3951 3901 7
1551 4051 7
4001 3951 7
1601 1551 7
4051 4001 7
1651 1601 7
1701 1651 7
1751 1701 7
1801 1751 7
 57   7 8
107  57 8
157 107 8
207 157 8
257 207 8
307 257 8
308 307 8
358 308 8
408 358 8
458 408 8
459 458 8
460 459 8
461 460 8
462 461 8
463 462 8
464 463 8
465 464 8
466 465 8
467 466 8
469 2969 8
2967 467 8
2968 2967 8
519 469 8
2969 2968 8
569 519 8
619 569 8
669 619 8
719 669 8
769 719 8
819 769 8
3319 819 8
3369 3319 8
3419 3369 8
3469 3419 8
3519 3469 8
3569 3519 8
3619 3569 8
3669 3619 8
3719 3669 8
1301 1302 8
1302 1303 8
1303 1304 8
1304 3804 8
3769 3719 8
3804 3805 8
3805 3806 8
3806 3807 8
3807 3808 8
3808 3809 8
3809 3810 8
3810 3811 8
3811 3812 8
3812 3813 8
3813 3814 8
3814 3815 8
3815 3816 8
3816 3817 8
3817 3818 8
3818 3819 8
3819 3769 8
3819 3820 8
3820 3821 8
3821 3822 8
3822 3823 8
3823 3824 8
3824 3825 8
3825 3826 8
3826 3827 8
3827 3828 8
3828 3829 8
3829 3830 8
1448 1498 8
3941 3942 8
3942 3943 8
3943 3944 8
3944 3945 8
3945 3946 8
3946 3947 8
3947 3948 8
1498 1499 8
3948 1448 8
1499 1549 8
1549 1599 8
1599 1649 8
1649 1650 8
1650 1700 8
1700 1750 8
1750 1800 8
1800 1850 8
1850 1900 8
1900 1950 8
1950 2000 8
2000 2050 8
2050 2100 8
2100 2150 8
2150 2200 8
2200 2250 8
2250 2300 8
2300 2350 8
2350 2400 8
3830 3831 8
3831 3832 8
3832 3882 8
3882 3932 8
3932 3933 8
3933 3934 8
3934 3935 8
3935 3936 8
3936 3937 8
3937 3938 8
3938 3939 8
3939 3940 8
3940 3941 8
 27  26 9
 28  27 9
 29  28 9
 30  29 9
 31  30 9
 81  31 9
131  81 9
181 131 9
182 181 9
232 182 9
233 232 9
283 233 9
284 283 9
334 284 9
384 334 9
385 384 9
386 385 9
436 386 9
437 436 9
487 437 9
537 487 9
587 537 9
588 587 9
638 588 9
688 638 9
689 688 9
3189 689 9
3190 3189 9
748 3248 9
749 748 9
750 749 9
3240 3190 9
3241 3240 9
3242 3241 9
3243 3242 9
3244 3243 9
3245 3244 9
3246 3245 9
3247 3246 9
3248 3247 9
  3   2 10
2503   3 10
2504 2503 10
2505 2504 10
2506 2505 10
2507 2506 10
2508 2507 10
2509 2508 10
2510 2509 10
2511 2510 10
2512 2511 10
2513 2512 10
2514 2513 10
2515 2514 10
2516 2515 10
2517 2516 10
2518 2517 10
2519 2518 10
 21 2521 10
2520 2519 10
2521 2520 10
2521 2571 10
2544  44 10
2571 2621 10
2594 2544 10
2621 2671 10
2644 2594 10
2671 2721 10
2694 2644 10
2721 2771 10
2744 2694 10
2771 2821 10
2794 2744 10
2821 2871 10
2843 2844 10
2844 2794 10
2871 2921 10
443 2943 10
2893 2843 10
471 521 10
2921 2971 10
493 443 10
2943 2893 10
521 571 10
2971 471 10
543 493 10
571 621 10
593 543 10
621 622 10
622 623 10
623 624 10
624 625 10
625 626 10
626 627 10
627 628 10
628 629 10
629 630 10
630 631 10
631 632 10
632 3132 10
3093 593 10
3132 3133 10
3133 3134 10
3134 3135 10
3135 3136 10
3136 3137 10
3137 3138 10
3138 3139 10
3139 3140 10
3140 3141 10
3141 3142 10
3142 3143 10
3143 3093 10
 18  17 11
 19  18 11
 69  19 11
119  69 11
169 119 11
219 169 11
2719 219 11
2769 2719 11
320 2820 11
2819 2769 11
370 320 11
2820 2819 11
420 370 11
470 420 11
520 470 11
570 520 11
3069 3070 11
3070 570 11
667 3167 11
3119 3069 11
717 667 11
3167 3168 11
3168 3169 11
3169 3119 11
766 767 11
767 717 11
816 766 11
865 866 11
866 816 11
914 915 11
915 865 11
963 964 11
964 914 11
1012 1013 11
1013 963 11
1061 1062 11
1062 1012 11
3561 1061 11
1155 1156 11
1156 1157 11
1157 1158 11
1158 1159 11
1159 1160 11
1160 3660 11
3611 3561 11
1205 1155 11
3660 3661 11
3661 3611 11
1255 1205 11
1305 1255 11
1352 1353 11
1353 1354 11
1354 1355 11
1355 1305 11
1402 1352 11
1452 1402 11
1502 1452 11
1552 1502 11
1602 1552 11
1652 1602 11
1702 1652 11
1752 1702 11
1802 1752 11
1852 1802 11
1902 1852 11
1952 1902 11
2002 1952 11
2052 2002 11
2102 2052 11
2152 2102 11
2202 2152 11
2252 2202 11
2302 2252 11
2351 2352 11
2352 2302 11
2401 2351 11
4751 2251 12
4752 4751 12
4753 4752 12
4754 4753 12
4755 4754 12
4756 4755 12
4757 4756 12
4758 4757 12
4759 4758 12
4760 4759 12
4761 4760 12
4762 4761 12
4763 4762 12
4764 4763 12
4765 4764 12
4766 4765 12
4767 4766 12
4768 4767 12
4769 4768 12
4770 4769 12
4771 4770 12
4772 4771 12
4773 4772 12
4774 4773 12
4775 4774 12
4825 4775 12
4826 4825 12
4827 4826 12
4828 4827 12
4829 4828 12
4879 4829 12
2448 4948 12
2449 2448 12
2450 2449 12
4929 4879 12
4930 4929 12
4931 4930 12
4932 4931 12
4933 4932 12
4934 4933 12
4935 4934 12
4936 4935 12
4937 4936 12
4938 4937 12
4939 4938 12
4940 4939 12
4941 4940 12
4942 4941 12
4943 4942 12
4944 4943 12
4945 4944 12
4946 4945 12
4947 4946 12
4948 4947 12
